<?xml version = "1.0" encoding="UTF-8" standalone="yes"?>
<CPLEXSolution version="1.2">
 <header
   problemName=""
   solutionName="incumbent"
   solutionIndex="-1"
   objectiveValue="4"
   solutionTypeValue="3"
   solutionTypeString="primal"
   solutionStatusValue="101"
   solutionStatusString="integer optimal solution"
   solutionMethodString="mip"
   primalFeasible="1"
   dualFeasible="1"
   MIPNodes="0"
   MIPIterations="0"
   writeLevel="1"/>
 <quality
   epInt="1.0000000000000001e-05"
   epRHS="1.0000000000000001e-09"
   maxIntInfeas="0"
   maxPrimalInfeas="0"
   maxX="1"
   maxSlack="100"/>
 <linearConstraints>
  <constraint index="0" slack="1"/>
  <constraint index="1" slack="0"/>
  <constraint index="2" slack="0"/>
  <constraint index="3" slack="0"/>
  <constraint index="4" slack="0"/>
  <constraint index="5" slack="0"/>
  <constraint index="6" slack="99"/>
  <constraint index="7" slack="100"/>
  <constraint index="8" slack="0"/>
  <constraint index="9" slack="100"/>
  <constraint index="10" slack="99"/>
  <constraint index="11" slack="100"/>
  <constraint index="12" slack="0"/>
  <constraint index="13" slack="100"/>
  <constraint index="14" slack="0"/>
  <constraint index="15" slack="0"/>
  <constraint index="16" slack="0"/>
  <constraint index="17" slack="0"/>
  <constraint index="18" slack="0"/>
  <constraint index="19" slack="0"/>
 </linearConstraints>
 <indicatorConstraints>
  <constraint index="0" slack="0"/>
  <constraint index="1" slack="0"/>
  <constraint index="2" slack="1e+20"/>
  <constraint index="3" slack="0"/>
  <constraint index="4" slack="0"/>
  <constraint index="5" slack="1e+20"/>
  <constraint index="6" slack="0"/>
 </indicatorConstraints>
 <variables>
  <variable index="0" value="0"/>
  <variable index="1" value="0"/>
  <variable index="2" value="0"/>
  <variable index="3" value="0"/>
  <variable index="4" value="-0"/>
  <variable index="5" value="-0"/>
  <variable index="6" value="1"/>
  <variable index="7" value="-0"/>
  <variable index="8" value="-0"/>
  <variable index="9" value="-0"/>
  <variable index="10" value="0"/>
  <variable index="11" value="0"/>
  <variable index="12" value="0"/>
  <variable index="13" value="-1"/>
  <variable index="14" value="0"/>
  <variable index="15" value="-1"/>
  <variable index="16" value="1"/>
  <variable index="17" value="0"/>
  <variable index="18" value="0"/>
  <variable index="19" value="0"/>
  <variable index="20" value="0"/>
  <variable index="21" value="0"/>
  <variable index="22" value="0"/>
  <variable index="23" value="0"/>
  <variable index="24" value="0"/>
  <variable index="25" value="0"/>
  <variable index="26" value="0"/>
  <variable index="27" value="0"/>
  <variable index="28" value="0"/>
  <variable index="29" value="0"/>
  <variable index="30" value="1"/>
  <variable index="31" value="0"/>
  <variable index="32" value="1"/>
  <variable index="33" value="0"/>
  <variable index="34" value="1"/>
  <variable index="35" value="0"/>
  <variable index="36" value="0"/>
  <variable index="37" value="0"/>
  <variable index="38" value="1"/>
  <variable index="39" value="0"/>
 </variables>
 <objectiveValues>
  <objective index="0" name="" value="4"/>
 </objectiveValues>
</CPLEXSolution>
